1251 1231 1183 1216
1210 1261 1089 1220
1031 1140 1124 1270
1023 1238 1258 1274
1168 1262 1213 1213
1122 1216 1209 1085
1131 1213 1296 1264
1126 1234 1167 1164
1112 1237 1227 1251
1239 1201 1210 1121
